# Components (V)
1 2 3 4 5 6 7 8 9 10 11 12 13 14 15 16 17 18 19 20 21 22 23 24 25 26 27 28 29 30 31 32 33 34 35 36 37 38 39 40 41 42 43 44 45 46 47 48 49 50 51 52 53 54 55 56 57 58 59 60 61 62 63 64 65 66 67 68 69 70 71 72 73 74 75 76 77 78 79 80 81 82 83 84 85 86 87 88 89 90 91 92 93 94 95 96 97 98 99 100 101 102 103 104 105 106 107 108 109 110 111 112 113 114 115 116 117 118 119 120 121 122 123 124 125 126 127 128 129 130 131 132 133 134 135 136 137 138 139 140 141 142 143 144 145 146 147 148 149 150 151 152 153 154 155 156 157 158 159 160 161 162 163 164 165 166 167 168 169 170 171 172 173 174 175 176 177 178 179 180 181 182 183 184 185 186 187 188 189 190 191 192 193 194 195 196 197 198 199 200 201 202 203 204 205 206 207 208 209 210 211 212 213 214 215 216 217 218 219 220 221 222 223 224 225 226 227 228 229 230 231 232 233 234 235 236 237 238 239 240 241

# Precedence arcs (E)
1 153
2 153
3 153
4 226
5 63
6 63
9 158
11 24
11 27
11 34
12 30
13 39
14 40
15 33
17 25
17 32
18 36
18 38
19 23
19 26
20 31
20 35
20 37
21 28
22 29
23 153
24 226
25 63
26 63
27 63
28 63
30 158
31 52
32 45
32 60
33 42
33 49
33 53
33 54
33 99
34 41
34 51
34 59
35 57
36 43
37 46
37 48
37 56
38 47
38 50
38 58
39 44
39 55
41 226
42 226
43 63
46 62
47 61
47 65
47 76
49 69
53 66
53 74
54 73
55 71
56 67
57 72
59 68
59 70
59 240
60 64
60 75
61 153
62 153
63 78
63 79
63 80
63 81
63 82
63 83
64 158
65 158
67 90
68 88
68 92
68 95
68 96
69 91
70 86
70 98
71 84
71 93
71 94
72 87
72 97
73 85
75 77
76 89
77 153
78 101
78 109
80 111
81 112
81 116
85 102
86 117
87 103
89 115
89 162
90 104
90 105
90 106
92 113
94 100
94 110
94 114
97 107
98 99
98 108
99 153
101 158
103 128
103 129
104 124
104 125
106 120
106 127
109 119
109 131
110 118
111 121
111 130
112 122
115 123
117 126
118 153
119 226
121 158
122 141
122 143
123 133
123 138
123 142
123 145
124 151
125 134
125 150
126 132
126 136
126 139
126 152
127 148
127 149
129 137
129 147
130 146
131 135
131 140
131 144
132 153
133 226
137 158
138 158
139 168
141 155
141 161
144 154
144 164
145 156
145 159
146 163
147 162
147 166
148 160
149 157
151 167
152 165
153 169
153 170
153 171
153 172
153 173
153 174
153 187
154 226
158 175
158 176
158 177
158 178
158 179
158 180
158 186
159 181
162 184
162 185
163 182
163 183
167 188
169 191
169 193
169 201
172 199
172 208
172 209
174 197
178 200
179 206
179 207
181 189
181 194
182 190
183 196
184 192
185 195
187 198
187 202
187 203
188 204
188 205
189 226
197 220
197 223
198 210
200 215
201 213
201 219
202 217
202 221
203 225
204 224
205 216
205 222
206 212
207 214
209 211
209 218
210 226
213 230
213 231
213 232
213 238
216 240
219 227
220 234
220 236
222 229
222 233
222 235
222 237
222 239
222 241
225 228

# Target components (T)
208 166 161

# Revenues (r)
1 24
2 24
3 21
4 27
5 25
6 27
7 20
8 23
9 26
10 26
11 23
12 26
13 22
14 24
15 27
16 22
17 29
18 20
19 24
20 22
21 21
22 22
23 26
24 20
25 22
26 21
27 26
28 29
29 21
30 27
31 22
32 30
33 23
34 20
35 23
36 29
37 26
38 20
39 26
40 20
41 21
42 21
43 20
44 27
45 26
46 23
47 27
48 24
49 21
50 20
51 22
52 26
53 22
54 30
55 27
56 27
57 30
58 20
59 29
60 24
61 23
62 30
63 21
64 30
65 26
66 23
67 26
68 20
69 21
70 25
71 28
72 27
73 26
74 25
75 20
76 24
77 25
78 25
79 21
80 22
81 29
82 28
83 22
84 23
85 28
86 29
87 29
88 27
89 28
90 20
91 25
92 22
93 27
94 27
95 27
96 28
97 20
98 20
99 20
100 26
101 24
102 23
103 22
104 26
105 23
106 26
107 30
108 24
109 22
110 24
111 20
112 23
113 27
114 29
115 20
116 25
117 27
118 25
119 27
120 26
121 20
122 24
123 28
124 22
125 26
126 27
127 28
128 25
129 25
130 27
131 24
132 25
133 26
134 29
135 20
136 21
137 27
138 28
139 20
140 30
141 23
142 21
143 30
144 20
145 30
146 24
147 22
148 27
149 26
150 27
151 27
152 27
153 20
154 24
155 23
156 29
157 21
158 22
159 22
160 30
161 23
162 25
163 30
164 22
165 28
166 23
167 21
168 20
169 23
170 26
171 27
172 30
173 25
174 22
175 20
176 20
177 21
178 26
179 26
180 26
181 21
182 25
183 23
184 30
185 25
186 28
187 23
188 29
189 25
190 22
191 20
192 28
193 29
194 28
195 23
196 20
197 24
198 23
199 29
200 23
201 29
202 28
203 27
204 26
205 22
206 23
207 27
208 29
209 26
210 23
211 26
212 26
213 23
214 26
215 22
216 30
217 20
218 25
219 26
220 30
221 22
222 21
223 25
224 26
225 26
226 23
227 30
228 24
229 25
230 20
231 29
232 26
233 22
234 29
235 25
236 21
237 22
238 27
239 28
240 25
241 22

# Costs (c)
1 2
2 1
3 10
4 5
5 6
6 8
7 6
8 9
9 5
10 4
11 9
12 10
13 2
14 9
15 4
16 4
17 1
18 2
19 1
20 7
21 9
22 9
23 1
24 10
25 3
26 6
27 3
28 4
29 4
30 9
31 7
32 5
33 7
34 10
35 8
36 1
37 10
38 10
39 3
40 7
41 9
42 9
43 9
44 4
45 2
46 8
47 8
48 8
49 4
50 7
51 9
52 1
53 10
54 1
55 4
56 3
57 5
58 6
59 4
60 8
61 5
62 5
63 9
64 7
65 6
66 2
67 4
68 1
69 3
70 4
71 4
72 2
73 4
74 6
75 8
76 1
77 5
78 9
79 7
80 7
81 2
82 3
83 4
84 5
85 3
86 3
87 7
88 2
89 9
90 1
91 1
92 2
93 5
94 5
95 10
96 10
97 5
98 2
99 8
100 5
101 8
102 4
103 4
104 7
105 3
106 6
107 7
108 7
109 5
110 7
111 4
112 1
113 1
114 8
115 8
116 3
117 9
118 10
119 7
120 8
121 6
122 10
123 7
124 2
125 10
126 5
127 6
128 6
129 1
130 2
131 5
132 10
133 5
134 1
135 7
136 4
137 1
138 10
139 4
140 7
141 3
142 10
143 6
144 5
145 6
146 5
147 10
148 6
149 9
150 2
151 1
152 7
153 2
154 1
155 1
156 1
157 4
158 4
159 8
160 6
161 4
162 7
163 3
164 3
165 6
166 8
167 1
168 4
169 5
170 2
171 2
172 8
173 8
174 2
175 8
176 9
177 5
178 3
179 1
180 2
181 10
182 10
183 5
184 5
185 3
186 3
187 9
188 5
189 9
190 7
191 10
192 10
193 3
194 8
195 3
196 10
197 4
198 5
199 3
200 7
201 10
202 8
203 1
204 4
205 5
206 10
207 5
208 6
209 5
210 8
211 5
212 5
213 10
214 2
215 10
216 4
217 10
218 4
219 4
220 3
221 3
222 1
223 2
224 3
225 10
226 10
227 10
228 3
229 5
230 1
231 6
232 9
233 8
234 4
235 4
236 1
237 10
238 7
239 7
240 6
241 8

# Durations (p)
1 212
2 173
3 219
4 293
5 211
6 156
7 68
8 197
9 226
10 115
11 52
12 251
13 158
14 22
15 266
16 161
17 149
18 202
19 34
20 54
21 105
22 94
23 29
24 195
25 208
26 270
27 237
28 124
29 279
30 96
31 255
32 159
33 147
34 120
35 131
36 81
37 118
38 26
39 104
40 235
41 158
42 53
43 53
44 89
45 167
46 219
47 146
48 75
49 27
50 144
51 86
52 154
53 228
54 52
55 81
56 55
57 217
58 201
59 66
60 278
61 75
62 151
63 150
64 171
65 180
66 139
67 118
68 56
69 153
70 165
71 92
72 38
73 78
74 66
75 60
76 86
77 85
78 253
79 65
80 25
81 243
82 46
83 118
84 63
85 113
86 131
87 37
88 330
89 217
90 141
91 94
92 101
93 180
94 100
95 252
96 26
97 163
98 82
99 138
100 255
101 95
102 194
103 117
104 124
105 231
106 158
107 51
108 51
109 127
110 46
111 46
112 88
113 188
114 113
115 259
116 55
117 206
118 202
119 195
120 97
121 143
122 104
123 149
124 152
125 138
126 196
127 103
128 200
129 91
130 53
131 190
132 463
133 212
134 75
135 148
136 143
137 33
138 141
139 102
140 67
141 36
142 119
143 72
144 98
145 70
146 28
147 364
148 139
149 228
150 158
151 49
152 205
153 56
154 97
155 255
156 124
157 161
158 25
159 100
160 59
161 182
162 63
163 80
164 44
165 236
166 103
167 31
168 98
169 192
170 33
171 320
172 104
173 22
174 187
175 66
176 116
177 198
178 117
179 66
180 50
181 181
182 230
183 130
184 126
185 159
186 101
187 165
188 66
189 21
190 144
191 64
192 173
193 72
194 167
195 30
196 49
197 91
198 145
199 176
200 268
201 23
202 147
203 296
204 118
205 35
206 176
207 261
208 274
209 232
210 181
211 284
212 119
213 206
214 68
215 180
216 52
217 35
218 243
219 203
220 234
221 28
222 44
223 332
224 185
225 174
226 101
227 86
228 67
229 78
230 151
231 70
232 146
233 38
234 192
235 299
236 45
237 268
238 109
239 142
240 157
241 94

orderrules
1 153 au000 avant au152
2 153 au001 avant au152
3 153 au002 avant au152
4 226 au003 avant au225
5 63 au004 avant au062
6 63 au005 avant au062
9 158 au008 avant au157
11 24 au010 avant au023
11 27 au010 avant au026
11 34 au010 avant au033
12 30 au011 avant au029
13 39 au012 avant au038
14 40 au013 avant au039
15 33 au014 avant au032
17 25 au016 avant au024
17 32 au016 avant au031
18 36 au017 avant au035
18 38 au017 avant au037
19 23 au018 avant au022
19 26 au018 avant au025
20 31 au019 avant au030
20 35 au019 avant au034
20 37 au019 avant au036
21 28 au020 avant au027
22 29 au021 avant au028
23 153 au022 avant au152
24 226 au023 avant au225
25 63 au024 avant au062
26 63 au025 avant au062
27 63 au026 avant au062
28 63 au027 avant au062
30 158 au029 avant au157
31 52 au030 avant au051
32 45 au031 avant au044
32 60 au031 avant au059
33 42 au032 avant au041
33 49 au032 avant au048
33 53 au032 avant au052
33 54 au032 avant au053
33 99 au032 avant au098
34 41 au033 avant au040
34 51 au033 avant au050
34 59 au033 avant au058
35 57 au034 avant au056
36 43 au035 avant au042
37 46 au036 avant au045
37 48 au036 avant au047
37 56 au036 avant au055
38 47 au037 avant au046
38 50 au037 avant au049
38 58 au037 avant au057
39 44 au038 avant au043
39 55 au038 avant au054
41 226 au040 avant au225
42 226 au041 avant au225
43 63 au042 avant au062
46 62 au045 avant au061
47 61 au046 avant au060
47 65 au046 avant au064
47 76 au046 avant au075
49 69 au048 avant au068
53 66 au052 avant au065
53 74 au052 avant au073
54 73 au053 avant au072
55 71 au054 avant au070
56 67 au055 avant au066
57 72 au056 avant au071
59 68 au058 avant au067
59 70 au058 avant au069
59 240 au058 avant au239
60 64 au059 avant au063
60 75 au059 avant au074
61 153 au060 avant au152
62 153 au061 avant au152
63 78 au062 avant au077
63 79 au062 avant au078
63 80 au062 avant au079
63 81 au062 avant au080
63 82 au062 avant au081
63 83 au062 avant au082
64 158 au063 avant au157
65 158 au064 avant au157
67 90 au066 avant au089
68 88 au067 avant au087
68 92 au067 avant au091
68 95 au067 avant au094
68 96 au067 avant au095
69 91 au068 avant au090
70 86 au069 avant au085
70 98 au069 avant au097
71 84 au070 avant au083
71 93 au070 avant au092
71 94 au070 avant au093
72 87 au071 avant au086
72 97 au071 avant au096
73 85 au072 avant au084
75 77 au074 avant au076
76 89 au075 avant au088
77 153 au076 avant au152
78 101 au077 avant au100
78 109 au077 avant au108
80 111 au079 avant au110
81 112 au080 avant au111
81 116 au080 avant au115
85 102 au084 avant au101
86 117 au085 avant au116
87 103 au086 avant au102
89 115 au088 avant au114
89 162 au088 avant au161
90 104 au089 avant au103
90 105 au089 avant au104
90 106 au089 avant au105
92 113 au091 avant au112
94 100 au093 avant au099
94 110 au093 avant au109
94 114 au093 avant au113
97 107 au096 avant au106
98 99 au097 avant au098
98 108 au097 avant au107
99 153 au098 avant au152
101 158 au100 avant au157
103 128 au102 avant au127
103 129 au102 avant au128
104 124 au103 avant au123
104 125 au103 avant au124
106 120 au105 avant au119
106 127 au105 avant au126
109 119 au108 avant au118
109 131 au108 avant au130
110 118 au109 avant au117
111 121 au110 avant au120
111 130 au110 avant au129
112 122 au111 avant au121
115 123 au114 avant au122
117 126 au116 avant au125
118 153 au117 avant au152
119 226 au118 avant au225
121 158 au120 avant au157
122 141 au121 avant au140
122 143 au121 avant au142
123 133 au122 avant au132
123 138 au122 avant au137
123 142 au122 avant au141
123 145 au122 avant au144
124 151 au123 avant au150
125 134 au124 avant au133
125 150 au124 avant au149
126 132 au125 avant au131
126 136 au125 avant au135
126 139 au125 avant au138
126 152 au125 avant au151
127 148 au126 avant au147
127 149 au126 avant au148
129 137 au128 avant au136
129 147 au128 avant au146
130 146 au129 avant au145
131 135 au130 avant au134
131 140 au130 avant au139
131 144 au130 avant au143
132 153 au131 avant au152
133 226 au132 avant au225
137 158 au136 avant au157
138 158 au137 avant au157
139 168 au138 avant au167
141 155 au140 avant au154
141 161 au140 avant au160
144 154 au143 avant au153
144 164 au143 avant au163
145 156 au144 avant au155
145 159 au144 avant au158
146 163 au145 avant au162
147 162 au146 avant au161
147 166 au146 avant au165
148 160 au147 avant au159
149 157 au148 avant au156
151 167 au150 avant au166
152 165 au151 avant au164
153 169 au152 avant au168
153 170 au152 avant au169
153 171 au152 avant au170
153 172 au152 avant au171
153 173 au152 avant au172
153 174 au152 avant au173
153 187 au152 avant au186
154 226 au153 avant au225
158 175 au157 avant au174
158 176 au157 avant au175
158 177 au157 avant au176
158 178 au157 avant au177
158 179 au157 avant au178
158 180 au157 avant au179
158 186 au157 avant au185
159 181 au158 avant au180
162 184 au161 avant au183
162 185 au161 avant au184
163 182 au162 avant au181
163 183 au162 avant au182
167 188 au166 avant au187
169 191 au168 avant au190
169 193 au168 avant au192
169 201 au168 avant au200
172 199 au171 avant au198
172 208 au171 avant au207
172 209 au171 avant au208
174 197 au173 avant au196
178 200 au177 avant au199
179 206 au178 avant au205
179 207 au178 avant au206
181 189 au180 avant au188
181 194 au180 avant au193
182 190 au181 avant au189
183 196 au182 avant au195
184 192 au183 avant au191
185 195 au184 avant au194
187 198 au186 avant au197
187 202 au186 avant au201
187 203 au186 avant au202
188 204 au187 avant au203
188 205 au187 avant au204
189 226 au188 avant au225
197 220 au196 avant au219
197 223 au196 avant au222
198 210 au197 avant au209
200 215 au199 avant au214
201 213 au200 avant au212
201 219 au200 avant au218
202 217 au201 avant au216
202 221 au201 avant au220
203 225 au202 avant au224
204 224 au203 avant au223
205 216 au204 avant au215
205 222 au204 avant au221
206 212 au205 avant au211
207 214 au206 avant au213
209 211 au208 avant au210
209 218 au208 avant au217
210 226 au209 avant au225
213 230 au212 avant au229
213 231 au212 avant au230
213 232 au212 avant au231
213 238 au212 avant au237
216 240 au215 avant au239
219 227 au218 avant au226
220 234 au219 avant au233
220 236 au219 avant au235
222 229 au221 avant au228
222 233 au221 avant au232
222 235 au221 avant au234
222 237 au221 avant au236
222 239 au221 avant au238
222 241 au221 avant au240
225 228 au224 avant au227
